Route #1: 4 45 27
Route #2: 15 20 37 36
Route #3: 21 47 5
Route #4: 29 48 30
Route #5: 2 28 22
Route #6: 42 41 43 1
Route #7: 33 6 51
Route #8: 17 12 40
Route #9: 32 44 3
Route #10: 16 23 49 24 18
Route #11: 50 25 9
Route #12: 39 31 10
Route #13: 38 11
Route #14: 14 53 7
Route #15: 35 19 54 13 8
Route #16: 52 34 46
Route #17: 26
Cost 980